33D32945 STP File, STP Format Version 1.0

SECTION Comment
Name "i640-133-PCST"
Creator "Indaco Biazzo" 
Remark "derived from Incidence graph by Cees Duin"
END

SECTION Graph
Nodes 640
Edges 1280
E 1 123 207.000000
E 1 153 202.000000
E 1 349 191.000000
E 1 402 204.000000
E 1 453 197.000000
E 1 573 203.000000
E 2 5 302.000000
E 2 110 201.000000
E 2 210 196.000000
E 3 16 295.000000
E 3 72 208.000000
E 3 293 206.000000
E 3 324 202.000000
E 3 585 189.000000
E 4 170 201.000000
E 4 197 200.000000
E 4 295 198.000000
E 5 296 197.000000
E 5 373 191.000000
E 5 547 206.000000
E 6 141 198.000000
E 6 306 196.000000
E 7 76 207.000000
E 7 361 194.000000
E 7 395 195.000000
E 7 433 189.000000
E 7 564 210.000000
E 8 402 199.000000
E 8 495 199.000000
E 9 11 307.000000
E 9 637 202.000000
E 10 581 205.000000
E 11 138 210.000000
E 11 140 197.000000
E 11 439 197.000000
E 11 507 199.000000
E 12 107 194.000000
E 12 352 208.000000
E 13 53 198.000000
E 13 58 197.000000
E 13 340 194.000000
E 13 461 200.000000
E 14 75 205.000000
E 14 77 199.000000
E 14 317 206.000000
E 14 360 204.000000
E 14 552 206.000000
E 15 56 205.000000
E 15 70 198.000000
E 15 241 201.000000
E 15 279 201.000000
E 16 43 194.000000
E 16 275 200.000000
E 16 506 196.000000
E 16 602 201.000000
E 17 72 196.000000
E 17 142 201.000000
E 17 176 194.000000
E 17 289 199.000000
E 18 97 189.000000
E 18 157 193.000000
E 18 422 191.000000
E 19 188 196.000000
E 19 288 206.000000
E 19 593 200.000000
E 20 55 201.000000
E 20 386 196.000000
E 20 519 201.000000
E 20 598 196.000000
E 21 105 193.000000
E 21 299 197.000000
E 22 183 189.000000
E 22 405 188.000000
E 23 84 199.000000
E 23 205 200.000000
E 23 442 191.000000
E 23 450 204.000000
E 24 60 201.000000
E 24 335 199.000000
E 24 394 206.000000
E 24 458 201.000000
E 24 522 197.000000
E 24 552 196.000000
E 25 95 191.000000
E 25 130 200.000000
E 25 255 199.000000
E 25 268 191.000000
E 25 269 186.000000
E 25 308 203.000000
E 25 314 200.000000
E 25 603 202.000000
E 26 540 105.000000
E 27 61 105.000000
E 27 71 96.000000
E 27 290 94.000000
E 27 306 91.000000
E 27 474 97.000000
E 27 514 99.000000
E 28 178 103.000000
E 28 237 94.000000
E 28 512 92.000000
E 28 520 106.000000
E 29 150 102.000000
E 29 414 102.000000
E 30 64 100.000000
E 30 109 98.000000
E 30 502 90.000000
E 30 627 104.000000
E 31 78 103.000000
E 31 90 96.000000
E 32 61 97.000000
E 32 222 111.000000
E 32 368 98.000000
E 32 486 98.000000
E 32 562 105.000000
E 33 96 89.000000
E 33 312 101.000000
E 33 539 102.000000
E 34 272 100.000000
E 34 565 108.000000
E 35 104 103.000000
E 35 149 107.000000
E 35 214 93.000000
E 35 318 95.000000
E 35 466 96.000000
E 36 113 99.000000
E 36 435 102.000000
E 37 320 104.000000
E 37 474 108.000000
E 37 482 107.000000
E 37 633 101.000000
E 38 247 103.000000
E 38 305 106.000000
E 38 436 99.000000
E 39 161 99.000000
E 39 296 100.000000
E 39 311 107.000000
E 39 407 98.000000
E 39 587 99.000000
E 40 102 99.000000
E 40 140 98.000000
E 40 174 98.000000
E 40 226 105.000000
E 40 469 100.000000
E 40 615 101.000000
E 41 159 105.000000
E 41 371 108.000000
E 41 378 106.000000
E 41 461 95.000000
E 41 517 89.000000
E 41 518 89.000000
E 42 90 98.000000
E 42 126 107.000000
E 42 559 101.000000
E 43 322 95.000000
E 43 638 101.000000
E 44 443 94.000000
E 45 136 98.000000
E 45 240 103.000000
E 45 413 90.000000
E 45 418 106.000000
E 45 495 96.000000
E 45 551 103.000000
E 46 93 90.000000
E 46 285 104.000000
E 46 347 95.000000
E 46 396 101.000000
E 46 473 103.000000
E 46 579 104.000000
E 47 122 98.000000
E 47 170 95.000000
E 47 284 102.000000
E 47 555 105.000000
E 47 626 88.000000
E 48 52 99.000000
E 48 175 102.000000
E 48 272 103.000000
E 48 350 94.000000
E 48 484 96.000000
E 48 553 97.000000
E 48 623 104.000000
E 49 152 104.000000
E 49 186 96.000000
E 49 333 104.000000
E 49 342 92.000000
E 49 402 102.000000
E 49 533 99.000000
E 50 253 93.000000
E 50 273 95.000000
E 50 600 97.000000
E 51 60 104.000000
E 51 155 103.000000
E 51 177 97.000000
E 51 258 91.000000
E 52 595 107.000000
E 53 90 96.000000
E 53 92 103.000000
E 53 192 95.000000
E 53 222 99.000000
E 53 567 101.000000
E 54 62 104.000000
E 54 75 100.000000
E 54 131 101.000000
E 54 214 105.000000
E 54 236 107.000000
E 54 295 91.000000
E 54 302 94.000000
E 54 481 98.000000
E 55 63 102.000000
E 55 300 102.000000
E 55 456 96.000000
E 55 512 100.000000
E 55 531 96.000000
E 56 179 105.000000
E 56 451 99.000000
E 57 113 109.000000
E 57 291 101.000000
E 57 369 105.000000
E 57 374 95.000000
E 58 85 111.000000
E 58 393 112.000000
E 59 67 102.000000
E 59 111 107.000000
E 59 143 107.000000
E 59 437 96.000000
E 59 610 95.000000
E 59 634 116.000000
E 60 441 90.000000
E 61 164 97.000000
E 62 135 102.000000
E 62 186 91.000000
E 62 312 100.000000
E 63 498 95.000000
E 63 500 105.000000
E 64 278 100.000000
E 64 353 98.000000
E 64 601 97.000000
E 65 369 101.000000
E 65 515 90.000000
E 65 536 103.000000
E 65 564 106.000000
E 66 261 96.000000
E 66 444 101.000000
E 66 532 105.000000
E 66 559 99.000000
E 66 615 91.000000
E 67 250 94.000000
E 67 404 98.000000
E 67 573 101.000000
E 67 576 96.000000
E 68 201 97.000000
E 68 320 106.000000
E 68 574 99.000000
E 68 612 97.000000
E 69 374 96.000000
E 70 376 97.000000
E 70 393 93.000000
E 70 401 101.000000
E 70 535 102.000000
E 71 152 98.000000
E 71 244 102.000000
E 71 277 102.000000
E 71 365 99.000000
E 71 613 106.000000
E 72 145 99.000000
E 72 324 102.000000
E 72 403 111.000000
E 73 179 93.000000
E 73 418 106.000000
E 73 467 97.000000
E 74 153 108.000000
E 75 125 100.000000
E 75 164 91.000000
E 75 288 101.000000
E 75 393 87.000000
E 75 405 96.000000
E 75 475 101.000000
E 75 547 91.000000
E 75 596 101.000000
E 76 312 96.000000
E 76 485 106.000000
E 77 163 97.000000
E 77 309 106.000000
E 77 546 101.000000
E 78 196 100.000000
E 79 191 104.000000
E 79 261 103.000000
E 79 299 90.000000
E 80 208 96.000000
E 80 219 107.000000
E 80 250 102.000000
E 80 304 107.000000
E 80 561 102.000000
E 80 615 104.000000
E 80 623 105.000000
E 81 104 104.000000
E 81 111 90.000000
E 81 389 100.000000
E 81 463 93.000000
E 81 545 101.000000
E 82 242 95.000000
E 82 375 102.000000
E 82 492 96.000000
E 83 168 103.000000
E 83 545 102.000000
E 84 493 100.000000
E 84 629 95.000000
E 85 107 100.000000
E 85 234 99.000000
E 85 379 92.000000
E 85 477 93.000000
E 85 592 103.000000
E 86 276 97.000000
E 86 572 97.000000
E 86 629 102.000000
E 87 247 109.000000
E 87 433 109.000000
E 88 369 97.000000
E 89 565 101.000000
E 90 261 99.000000
E 91 164 91.000000
E 91 397 92.000000
E 91 622 97.000000
E 92 257 100.000000
E 92 336 96.000000
E 92 355 99.000000
E 93 492 115.000000
E 93 588 94.000000
E 94 175 109.000000
E 94 380 102.000000
E 95 96 100.000000
E 95 102 97.000000
E 95 238 97.000000
E 96 145 102.000000
E 96 226 100.000000
E 96 254 91.000000
E 96 295 101.000000
E 96 300 105.000000
E 96 444 101.000000
E 96 497 103.000000
E 97 195 99.000000
E 97 267 92.000000
E 97 299 91.000000
E 97 390 103.000000
E 97 612 102.000000
E 98 214 96.000000
E 98 376 92.000000
E 98 442 106.000000
E 99 120 100.000000
E 99 476 98.000000
E 99 618 92.000000
E 100 501 103.000000
E 100 598 89.000000
E 101 232 92.000000
E 101 371 104.000000
E 101 465 98.000000
E 101 494 93.000000
E 101 517 98.000000
E 101 593 97.000000
E 101 618 102.000000
E 102 122 99.000000
E 102 159 99.000000
E 102 576 95.000000
E 103 256 104.000000
E 103 306 95.000000
E 103 562 97.000000
E 103 573 94.000000
E 104 542 97.000000
E 104 550 110.000000
E 105 112 101.000000
E 105 129 100.000000
E 105 347 106.000000
E 105 398 102.000000
E 105 516 101.000000
E 105 517 97.000000
E 105 539 104.000000
E 106 280 95.000000
E 106 369 98.000000
E 107 114 93.000000
E 107 181 95.000000
E 108 444 109.000000
E 108 588 98.000000
E 109 198 101.000000
E 109 213 95.000000
E 109 405 99.000000
E 109 455 93.000000
E 109 479 109.000000
E 109 527 100.000000
E 109 528 102.000000
E 109 543 104.000000
E 109 625 95.000000
E 110 415 102.000000
E 110 511 102.000000
E 110 617 101.000000
E 111 153 102.000000
E 111 214 91.000000
E 111 253 88.000000
E 111 373 91.000000
E 111 374 88.000000
E 111 406 97.000000
E 111 543 98.000000
E 112 123 104.000000
E 112 260 104.000000
E 112 446 104.000000
E 112 602 101.000000
E 112 613 100.000000
E 113 138 94.000000
E 113 400 99.000000
E 113 405 92.000000
E 113 413 99.000000
E 113 557 103.000000
E 114 211 98.000000
E 114 399 97.000000
E 115 399 106.000000
E 116 133 91.000000
E 116 235 96.000000
E 116 611 96.000000
E 117 311 101.000000
E 117 378 93.000000
E 117 493 97.000000
E 118 192 94.000000
E 118 206 94.000000
E 118 382 100.000000
E 118 499 100.000000
E 119 307 95.000000
E 119 463 99.000000
E 120 152 98.000000
E 120 153 105.000000
E 121 122 104.000000
E 121 132 96.000000
E 121 509 92.000000
E 121 583 94.000000
E 122 364 98.000000
E 122 469 99.000000
E 123 356 97.000000
E 123 412 106.000000
E 123 598 97.000000
E 124 545 96.000000
E 124 611 99.000000
E 125 466 100.000000
E 126 205 105.000000
E 126 360 95.000000
E 127 279 101.000000
E 127 369 97.000000
E 127 372 98.000000
E 127 540 96.000000
E 128 223 95.000000
E 128 277 105.000000
E 128 353 102.000000
E 130 180 100.000000
E 130 228 104.000000
E 131 212 100.000000
E 132 294 109.000000
E 132 365 94.000000
E 133 277 103.000000
E 133 345 106.000000
E 133 357 108.000000
E 133 396 103.000000
E 133 402 92.000000
E 133 626 95.000000
E 134 604 100.000000
E 135 190 105.000000
E 135 332 103.000000
E 136 608 111.000000
E 137 600 102.000000
E 139 241 89.000000
E 139 452 107.000000
E 140 545 105.000000
E 141 220 94.000000
E 141 226 93.000000
E 141 339 98.000000
E 141 354 98.000000
E 141 608 96.000000
E 142 223 108.000000
E 142 327 103.000000
E 142 332 96.000000
E 142 377 100.000000
E 142 416 102.000000
E 142 451 96.000000
E 142 523 102.000000
E 142 526 94.000000
E 142 625 97.000000
E 143 189 101.000000
E 143 322 96.000000
E 144 496 103.000000
E 145 387 97.000000
E 145 577 91.000000
E 145 589 94.000000
E 146 212 98.000000
E 146 513 90.000000
E 146 594 104.000000
E 147 187 92.000000
E 147 319 98.000000
E 147 538 113.000000
E 148 181 96.000000
E 148 189 98.000000
E 148 293 96.000000
E 148 358 105.000000
E 148 378 103.000000
E 148 496 94.000000
E 149 228 103.000000
E 149 289 98.000000
E 150 176 100.000000
E 150 188 100.000000
E 150 197 104.000000
E 151 302 101.000000
E 151 426 110.000000
E 152 417 103.000000
E 153 337 98.000000
E 153 376 94.000000
E 153 460 103.000000
E 153 511 89.000000
E 154 235 102.000000
E 154 301 106.000000
E 154 396 96.000000
E 155 343 95.000000
E 155 354 105.000000
E 155 460 100.000000
E 156 166 96.000000
E 156 473 99.000000
E 156 527 96.000000
E 156 545 97.000000
E 157 248 96.000000
E 157 583 101.000000
E 158 279 97.000000
E 158 461 96.000000
E 158 561 98.000000
E 158 576 100.000000
E 159 435 96.000000
E 159 440 99.000000
E 160 468 101.000000
E 160 516 105.000000
E 161 220 99.000000
E 161 237 107.000000
E 161 333 103.000000
E 161 383 106.000000
E 161 527 97.000000
E 161 533 101.000000
E 161 566 96.000000
E 162 388 114.000000
E 162 399 103.000000
E 162 491 102.000000
E 162 560 103.000000
E 162 581 99.000000
E 163 191 101.000000
E 163 322 103.000000
E 163 417 105.000000
E 163 529 96.000000
E 164 414 100.000000
E 164 539 97.000000
E 165 193 95.000000
E 165 440 104.000000
E 166 313 98.000000
E 166 391 102.000000
E 166 581 94.000000
E 167 397 93.000000
E 167 561 103.000000
E 167 578 109.000000
E 167 581 103.000000
E 167 629 102.000000
E 168 250 99.000000
E 168 402 94.000000
E 168 414 97.000000
E 168 605 104.000000
E 169 188 103.000000
E 169 628 103.000000
E 171 227 92.000000
E 171 362 104.000000
E 171 390 113.000000
E 171 595 99.000000
E 172 234 101.000000
E 172 323 100.000000
E 172 384 100.000000
E 173 417 98.000000
E 176 212 103.000000
E 176 545 102.000000
E 176 595 106.000000
E 177 355 102.000000
E 177 383 104.000000
E 177 427 97.000000
E 177 458 94.000000
E 178 555 88.000000
E 179 225 98.000000
E 179 334 101.000000
E 179 498 103.000000
E 179 541 101.000000
E 180 374 98.000000
E 181 566 96.000000
E 182 199 96.000000
E 182 397 102.000000
E 182 437 89.000000
E 182 502 96.000000
E 182 583 94.000000
E 183 242 105.000000
E 183 244 110.000000
E 183 259 97.000000
E 183 269 99.000000
E 183 299 95.000000
E 183 415 100.000000
E 183 624 102.000000
E 184 291 94.000000
E 184 321 98.000000
E 184 535 94.000000
E 184 544 98.000000
E 184 591 101.000000
E 185 239 107.000000
E 185 304 94.000000
E 185 447 99.000000
E 186 199 104.000000
E 187 192 95.000000
E 187 234 108.000000
E 187 439 98.000000
E 188 210 105.000000
E 188 473 100.000000
E 188 600 103.000000
E 189 247 100.000000
E 189 298 88.000000
E 189 393 90.000000
E 189 578 97.000000
E 191 622 105.000000
E 193 214 100.000000
E 193 337 92.000000
E 193 344 99.000000
E 193 376 95.000000
E 193 533 101.000000
E 194 205 95.000000
E 194 364 100.000000
E 194 617 100.000000
E 195 389 99.000000
E 195 575 98.000000
E 195 599 108.000000
E 195 631 102.000000
E 196 237 99.000000
E 196 456 98.000000
E 196 472 94.000000
E 196 509 103.000000
E 196 517 99.000000
E 196 534 100.000000
E 197 198 91.000000
E 197 243 92.000000
E 197 355 96.000000
E 197 413 103.000000
E 198 243 90.000000
E 198 477 90.000000
E 198 506 102.000000
E 198 554 95.000000
E 199 226 101.000000
E 200 265 100.000000
E 200 289 93.000000
E 200 442 88.000000
E 200 450 96.000000
E 200 533 105.000000
E 200 640 99.000000
E 201 490 96.000000
E 201 559 108.000000
E 202 410 89.000000
E 202 482 98.000000
E 202 501 102.000000
E 202 506 107.000000
E 202 636 104.000000
E 203 311 105.000000
E 203 374 99.000000
E 204 219 93.000000
E 204 276 107.000000
E 204 286 103.000000
E 204 339 98.000000
E 204 525 96.000000
E 204 532 109.000000
E 205 260 98.000000
E 205 493 106.000000
E 205 525 100.000000
E 205 606 103.000000
E 205 625 101.000000
E 206 218 96.000000
E 206 530 101.000000
E 207 322 94.000000
E 207 403 95.000000
E 208 247 102.000000
E 208 315 98.000000
E 208 421 98.000000
E 209 428 101.000000
E 209 563 102.000000
E 210 409 113.000000
E 210 479 105.000000
E 212 330 106.000000
E 212 392 103.000000
E 212 418 102.000000
E 213 355 93.000000
E 213 449 99.000000
E 213 465 104.000000
E 213 525 105.000000
E 214 266 97.000000
E 214 334 102.000000
E 214 497 95.000000
E 214 499 101.000000
E 215 230 97.000000
E 215 290 104.000000
E 215 413 98.000000
E 215 615 105.000000
E 216 610 99.000000
E 217 231 106.000000
E 217 402 100.000000
E 217 433 103.000000
E 217 619 93.000000
E 218 561 97.000000
E 219 315 94.000000
E 219 427 102.000000
E 219 469 105.000000
E 219 488 100.000000
E 219 536 99.000000
E 219 570 103.000000
E 219 592 104.000000
E 220 246 100.000000
E 220 320 102.000000
E 220 440 99.000000
E 220 497 105.000000
E 220 518 102.000000
E 221 229 93.000000
E 221 510 92.000000
E 222 226 93.000000
E 222 277 110.000000
E 222 412 104.000000
E 222 437 98.000000
E 222 456 97.000000
E 222 519 93.000000
E 222 578 95.000000
E 222 618 85.000000
E 223 290 105.000000
E 223 294 98.000000
E 223 578 98.000000
E 224 277 93.000000
E 224 364 97.000000
E 225 298 97.000000
E 225 444 100.000000
E 225 551 99.000000
E 226 234 107.000000
E 226 252 107.000000
E 226 309 103.000000
E 226 435 106.000000
E 226 453 94.000000
E 226 561 101.000000
E 227 336 107.000000
E 227 376 94.000000
E 227 424 101.000000
E 227 518 103.000000
E 228 291 102.000000
E 228 306 106.000000
E 228 453 103.000000
E 228 607 101.000000
E 229 417 97.000000
E 229 510 95.000000
E 230 243 99.000000
E 230 302 96.000000
E 231 241 96.000000
E 231 283 90.000000
E 232 383 94.000000
E 233 354 104.000000
E 233 431 97.000000
E 234 452 101.000000
E 234 514 102.000000
E 235 336 102.000000
E 235 369 104.000000
E 235 593 102.000000
E 236 403 100.000000
E 236 549 99.000000
E 237 270 103.000000
E 237 290 101.000000
E 237 363 95.000000
E 237 590 95.000000
E 237 608 93.000000
E 238 384 94.000000
E 238 581 99.000000
E 239 509 92.000000
E 240 263 103.000000
E 240 566 100.000000
E 240 620 97.000000
E 241 522 105.000000
E 242 574 101.000000
E 243 293 106.000000
E 243 295 96.000000
E 243 463 89.000000
E 243 478 97.000000
E 243 519 101.000000
E 243 626 97.000000
E 244 570 106.000000
E 245 268 88.000000
E 245 522 102.000000
E 245 600 99.000000
E 246 499 104.000000
E 246 533 103.000000
E 246 580 103.000000
E 247 402 98.000000
E 247 407 99.000000
E 248 382 98.000000
E 248 392 104.000000
E 248 555 95.000000
E 249 379 105.000000
E 249 640 89.000000
E 250 418 97.000000
E 250 496 103.000000
E 250 527 88.000000
E 250 528 98.000000
E 251 258 104.000000
E 251 458 102.000000
E 252 537 98.000000
E 252 556 101.000000
E 253 329 98.000000
E 253 340 95.000000
E 253 486 104.000000
E 254 522 97.000000
E 255 384 105.000000
E 255 513 99.000000
E 256 597 104.000000
E 256 614 95.000000
E 256 627 102.000000
E 257 265 96.000000
E 258 303 109.000000
E 258 517 87.000000
E 259 359 105.000000
E 260 354 100.000000
E 260 538 98.000000
E 260 620 96.000000
E 261 431 106.000000
E 262 339 111.000000
E 262 551 96.000000
E 262 637 99.000000
E 263 397 95.000000
E 263 558 105.000000
E 264 278 106.000000
E 264 452 99.000000
E 264 507 95.000000
E 265 371 98.000000
E 266 269 95.000000
E 267 370 88.000000
E 267 510 104.000000
E 268 293 99.000000
E 268 465 105.000000
E 268 571 107.000000
E 269 354 92.000000
E 269 543 96.000000
E 270 434 99.000000
E 271 323 97.000000
E 271 355 98.000000
E 271 560 97.000000
E 271 564 98.000000
E 272 342 95.000000
E 272 605 108.000000
E 273 619 101.000000
E 274 449 102.000000
E 275 631 96.000000
E 276 521 98.000000
E 277 282 103.000000
E 277 351 97.000000
E 277 585 92.000000
E 277 603 105.000000
E 278 444 107.000000
E 278 457 98.000000
E 278 489 107.000000
E 278 630 101.000000
E 279 332 104.000000
E 279 455 84.000000
E 279 536 104.000000
E 280 310 97.000000
E 280 361 100.000000
E 281 420 88.000000
E 281 476 105.000000
E 281 608 103.000000
E 282 583 91.000000
E 283 505 96.000000
E 283 561 98.000000
E 284 378 112.000000
E 284 477 101.000000
E 284 555 99.000000
E 284 594 97.000000
E 285 320 103.000000
E 285 539 105.000000
E 286 506 96.000000
E 287 307 92.000000
E 287 410 101.000000
E 287 633 104.000000
E 289 317 100.000000
E 289 359 99.000000
E 289 464 107.000000
E 290 295 101.000000
E 290 519 105.000000
E 291 392 95.000000
E 291 459 105.000000
E 291 600 107.000000
E 292 320 101.000000
E 292 459 96.000000
E 292 632 95.000000
E 293 442 97.000000
E 294 369 101.000000
E 294 570 102.000000
E 294 620 99.000000
E 295 304 105.000000
E 295 401 107.000000
E 295 458 102.000000
E 295 462 102.000000
E 295 613 100.000000
E 295 622 103.000000
E 296 361 107.000000
E 296 363 101.000000
E 296 533 105.000000
E 296 586 101.000000
E 297 490 89.000000
E 297 572 105.000000
E 298 453 102.000000
E 298 486 93.000000
E 299 422 92.000000
E 299 458 99.000000
E 299 593 106.000000
E 299 633 96.000000
E 300 538 104.000000
E 301 359 98.000000
E 302 487 102.000000
E 302 492 100.000000
E 303 316 98.000000
E 303 617 91.000000
E 304 423 100.000000
E 304 579 100.000000
E 305 397 99.000000
E 305 493 98.000000
E 305 597 89.000000
E 305 601 104.000000
E 306 335 102.000000
E 306 388 99.000000
E 306 547 98.000000
E 307 397 102.000000
E 307 527 101.000000
E 307 528 100.000000
E 307 580 100.000000
E 308 483 100.000000
E 309 344 92.000000
E 309 411 90.000000
E 310 433 104.000000
E 311 330 92.000000
E 311 402 92.000000
E 311 472 95.000000
E 312 468 99.000000
E 312 500 100.000000
E 312 507 102.000000
E 314 435 95.000000
E 314 483 96.000000
E 315 410 104.000000
E 315 623 100.000000
E 317 356 96.000000
E 317 397 97.000000
E 317 509 110.000000
E 317 555 103.000000
E 318 368 97.000000
E 318 582 102.000000
E 319 353 100.000000
E 319 601 95.000000
E 320 489 109.000000
E 321 405 98.000000
E 322 639 106.000000
E 323 552 93.000000
E 324 433 101.000000
E 325 335 97.000000
E 325 589 99.000000
E 326 453 103.000000
E 327 412 104.000000
E 327 623 94.000000
E 328 346 90.000000
E 328 374 97.000000
E 328 564 99.000000
E 329 422 99.000000
E 330 624 100.000000
E 331 499 101.000000
E 331 587 95.000000
E 331 621 100.000000
E 332 335 100.000000
E 332 599 92.000000
E 332 601 104.000000
E 333 395 95.000000
E 333 468 103.000000
E 333 547 101.000000
E 333 560 103.000000
E 334 456 104.000000
E 336 408 88.000000
E 336 446 98.000000
E 336 452 97.000000
E 337 339 98.000000
E 337 534 94.000000
E 337 596 103.000000
E 338 476 96.000000
E 338 536 92.000000
E 339 432 90.000000
E 339 605 93.000000
E 340 484 98.000000
E 341 351 103.000000
E 343 384 95.000000
E 343 582 104.000000
E 343 605 103.000000
E 344 428 103.000000
E 344 559 111.000000
E 344 595 102.000000
E 345 581 94.000000
E 346 355 100.000000
E 346 541 106.000000
E 347 444 104.000000
E 347 623 100.000000
E 348 403 101.000000
E 348 454 101.000000
E 348 506 97.000000
E 349 512 111.000000
E 349 579 106.000000
E 350 589 99.000000
E 352 378 104.000000
E 352 518 104.000000
E 353 520 90.000000
E 353 533 100.000000
E 354 403 97.000000
E 354 577 112.000000
E 354 626 104.000000
E 355 369 99.000000
E 355 422 97.000000
E 355 453 103.000000
E 355 487 94.000000
E 355 635 101.000000
E 357 575 105.000000
E 357 637 94.000000
E 358 415 99.000000
E 358 486 93.000000
E 358 501 101.000000
E 359 373 93.000000
E 359 390 103.000000
E 359 462 101.000000
E 360 579 108.000000
E 361 524 104.000000
E 362 368 109.000000
E 362 614 97.000000
E 363 443 99.000000
E 363 456 104.000000
E 363 555 113.000000
E 364 459 97.000000
E 364 584 101.000000
E 366 462 100.000000
E 366 496 101.000000
E 366 531 107.000000
E 367 411 104.000000
E 368 461 103.000000
E 368 502 110.000000
E 369 501 96.000000
E 370 447 107.000000
E 370 486 95.000000
E 372 380 101.000000
E 373 534 94.000000
E 375 428 100.000000
E 375 456 94.000000
E 376 418 97.000000
E 376 459 104.000000
E 376 521 99.000000
E 376 610 104.000000
E 377 633 97.000000
E 378 477 99.000000
E 379 461 95.000000
E 381 552 92.000000
E 382 406 116.000000
E 382 577 99.000000
E 383 384 100.000000
E 383 395 89.000000
E 385 519 101.000000
E 386 626 101.000000
E 387 422 96.000000
E 388 440 101.000000
E 388 534 96.000000
E 388 553 107.000000
E 388 576 105.000000
E 390 584 106.000000
E 390 597 103.000000
E 391 454 105.000000
E 391 560 109.000000
E 392 416 99.000000
E 392 443 104.000000
E 392 492 101.000000
E 392 525 102.000000
E 392 527 102.000000
E 393 577 99.000000
E 393 615 104.000000
E 395 465 104.000000
E 396 437 97.000000
E 396 468 95.000000
E 397 597 100.000000
E 399 421 96.000000
E 400 533 101.000000
E 401 613 102.000000
E 402 441 103.000000
E 403 551 100.000000
E 404 561 94.000000
E 405 507 92.000000
E 407 552 101.000000
E 407 611 93.000000
E 409 580 104.000000
E 409 632 99.000000
E 410 449 109.000000
E 410 483 99.000000
E 411 536 103.000000
E 411 572 97.000000
E 413 416 98.000000
E 413 439 102.000000
E 413 529 97.000000
E 413 550 101.000000
E 413 591 108.000000
E 413 599 105.000000
E 414 466 98.000000
E 414 574 98.000000
E 414 590 98.000000
E 415 501 102.000000
E 415 605 101.000000
E 417 624 103.000000
E 418 515 97.000000
E 419 503 99.000000
E 419 549 101.000000
E 420 507 96.000000
E 420 631 96.000000
E 423 548 103.000000
E 424 470 107.000000
E 425 445 99.000000
E 425 514 99.000000
E 426 632 95.000000
E 427 569 95.000000
E 427 571 97.000000
E 428 492 100.000000
E 429 545 97.000000
E 429 585 90.000000
E 430 431 105.000000
E 430 459 99.000000
E 430 514 100.000000
E 430 621 99.000000
E 431 475 100.000000
E 431 575 99.000000
E 432 448 101.000000
E 432 539 96.000000
E 432 592 91.000000
E 434 462 97.000000
E 434 526 106.000000
E 434 604 111.000000
E 434 617 98.000000
E 435 620 99.000000
E 436 543 104.000000
E 437 567 98.000000
E 438 475 103.000000
E 438 593 104.000000
E 439 485 105.000000
E 439 591 106.000000
E 439 605 92.000000
E 439 628 109.000000
E 441 442 100.000000
E 441 458 102.000000
E 443 628 98.000000
E 444 582 102.000000
E 445 451 98.000000
E 445 510 105.000000
E 445 561 105.000000
E 445 610 96.000000
E 446 581 96.000000
E 447 501 94.000000
E 447 503 93.000000
E 447 521 102.000000
E 447 545 95.000000
E 447 569 101.000000
E 448 570 89.000000
E 449 511 106.000000
E 450 516 104.000000
E 452 618 94.000000
E 453 524 103.000000
E 455 552 101.000000
E 458 570 101.000000
E 461 572 94.000000
E 463 535 95.000000
E 463 601 106.000000
E 463 623 102.000000
E 464 550 109.000000
E 466 600 96.000000
E 466 638 105.000000
E 467 520 98.000000
E 469 593 93.000000
E 469 607 100.000000
E 470 513 102.000000
E 471 487 94.000000
E 471 510 102.000000
E 472 575 96.000000
E 473 499 98.000000
E 473 543 96.000000
E 473 556 103.000000
E 473 578 109.000000
E 476 486 107.000000
E 477 525 97.000000
E 477 563 99.000000
E 478 496 105.000000
E 478 623 100.000000
E 479 496 95.000000
E 480 604 96.000000
E 481 567 97.000000
E 481 585 85.000000
E 482 533 99.000000
E 483 507 97.000000
E 484 559 91.000000
E 489 543 94.000000
E 490 502 91.000000
E 490 532 102.000000
E 492 536 94.000000
E 493 534 103.000000
E 493 566 96.000000
E 493 630 95.000000
E 494 535 96.000000
E 494 609 104.000000
E 495 623 98.000000
E 496 601 103.000000
E 498 524 96.000000
E 499 634 98.000000
E 500 604 104.000000
E 502 637 98.000000
E 504 608 91.000000
E 505 513 105.000000
E 506 566 106.000000
E 508 579 94.000000
E 509 638 101.000000
E 510 622 96.000000
E 510 636 100.000000
E 513 610 106.000000
E 513 613 98.000000
E 517 526 97.000000
E 519 604 100.000000
E 519 625 106.000000
E 520 589 88.000000
E 522 580 109.000000
E 523 570 91.000000
E 524 639 94.000000
E 527 539 105.000000
E 529 557 93.000000
E 529 621 110.000000
E 529 634 97.000000
E 530 532 89.000000
E 537 624 105.000000
E 538 561 96.000000
E 542 544 103.000000
E 542 622 96.000000
E 543 578 94.000000
E 543 607 97.000000
E 544 553 99.000000
E 545 636 91.000000
E 546 572 102.000000
E 547 585 93.000000
E 549 583 97.000000
E 549 595 101.000000
E 549 632 98.000000
E 551 589 110.000000
E 551 607 98.000000
E 552 576 109.000000
E 553 590 95.000000
E 554 625 99.000000
E 555 564 105.000000
E 556 572 96.000000
E 557 594 98.000000
E 559 571 104.000000
E 559 631 92.000000
E 560 602 108.000000
E 560 616 105.000000
E 562 584 106.000000
E 562 590 105.000000
E 564 608 96.000000
E 565 609 100.000000
E 567 585 101.000000
E 568 621 98.000000
E 569 605 88.000000
E 571 583 98.000000
E 573 586 91.000000
E 573 636 95.000000
E 588 596 93.000000
E 594 606 101.000000
E 595 609 97.000000
E 600 612 95.000000
E 605 606 96.000000
E 609 618 90.000000
E 610 617 107.000000
E 610 618 101.000000
E 616 630 99.000000
END

SECTION Terminals
Terminals 25
TP 1 224.000000
TP 2 452.000000
TP 3 700.000000
TP 4 168.000000
TP 5 1000.000000
TP 6 1116.000000
TP 7 1172.000000
TP 8 1144.000000
TP 9 340.000000
TP 10 8.000000
TP 11 112.000000
TP 12 484.000000
TP 13 968.000000
TP 14 912.000000
TP 15 88.000000
TP 16 8.000000
TP 17 976.000000
TP 18 896.000000
TP 19 256.000000
TP 20 624.000000
TP 21 736.000000
TP 22 1156.000000
TP 23 676.000000
TP 24 988.000000
TP 25 696.000000
END

EOF
